INPUT_SPECS
type = IRC
output file = irc.amv
fa1_name = pd_cc_ts
frag1 = pd
1.H
2.H
end frag1
frag2 = cc
3.H
4.H
end frag2

print bond 1 3 1.00
print strain frag1  100
print strain frag2  200

END INPUT_SPECS

! SP B3LYP 6-31G(d) 

* xyz 0 1
END INPUT
